
Gurobi 10.0.1 (win64) logging started Tue Mar 21 22:16:24 2023

Set parameter LogFile to value "logFiles/N-1L-180D/N-1L-7U-36F-23V-180D-b-charterout.log"
Gurobi Optimizer version 10.0.1 build v10.0.1rc0 (win64)

CPU model: Intel(R) Core(TM) i7-10700 CPU @ 2.90GHz, instruction set [SSE2|AVX|AVX2]
Thread count: 8 physical cores, 16 logical processors, using up to 16 threads

Optimize a model with 90966 rows, 882312 columns and 8202370 nonzeros
Model fingerprint: 0x59485673
Variable types: 1464 continuous, 880848 integer (880848 binary)
Coefficient statistics:
  Matrix range     [1e+00, 2e+05]
  Objective range  [4e+01, 2e+07]
  Bounds range     [1e+00, 1e+00]
  RHS range        [1e+00, 3e+06]
Presolve removed 33126 rows and 90555 columns (presolve time = 5s) ...
Presolve removed 64946 rows and 129207 columns (presolve time = 10s) ...
Presolve removed 65022 rows and 130219 columns
Presolve time: 14.94s
Presolved: 25944 rows, 752093 columns, 4380444 nonzeros
Variable types: 1478 continuous, 750615 integer (750615 binary)
Deterministic concurrent LP optimizer: primal simplex, dual simplex, and barrier
Showing barrier log only...

Root barrier log...

Elapsed ordering time = 7s
Ordering time: 8.45s

Barrier statistics:
 AA' NZ     : 1.893e+06
 Factor NZ  : 6.025e+06 (roughly 400 MB of memory)
 Factor Ops : 5.606e+09 (less than 1 second per iteration)
 Threads    : 5

                  Objective                Residual
Iter       Primal          Dual         Primal    Dual     Compl     Time
   0  -5.35663193e+16  1.73960854e+12  7.57e+09 7.32e+05  2.49e+11    30s
   1  -9.96758707e+15  2.38551281e+12  1.41e+09 2.71e+05  4.67e+10    31s
   2  -1.99508322e+14  1.86759555e+12  2.86e+07 1.86e-09  9.55e+08    32s
   3  -1.15104658e+13  1.18227318e+12  1.65e+06 2.10e-09  5.60e+07    32s
   4  -1.45618281e+12  7.35408356e+11  2.09e+05 2.10e-09  7.43e+06    33s
   5  -9.59729142e+11  5.68931864e+11  1.38e+05 2.19e-08  4.88e+06    34s
   6  -5.78011240e+11  5.37030344e+11  8.28e+04 2.21e-08  3.04e+06    34s
   7  -2.61221231e+11  4.00723980e+11  3.74e+04 1.51e-08  1.41e+06    35s
   8  -1.21394796e+11  2.60062607e+11  1.75e+04 2.63e-08  6.55e+05    36s
   9  -3.32203989e+10  1.20323420e+11  4.95e+03 2.98e-08  1.96e+05    36s
  10  -1.64469413e+10  4.86039540e+10  2.56e+03 1.19e-07  8.27e+04    37s
  11  -4.85216921e+09  2.27313642e+10  9.15e+02 4.47e-08  3.06e+04    38s
  12  -1.67637766e+09  1.44339815e+10  4.65e+02 1.49e-08  1.66e+04    39s
  13  -4.59268536e+08  1.23769038e+10  2.93e+02 1.12e-08  1.22e+04    39s
  14  -1.10736926e+08  1.01078941e+10  2.44e+02 7.45e-09  9.79e+03    40s
  15   5.38110689e+08  7.84369307e+09  1.53e+02 5.20e-09  6.71e+03    41s
  16   9.29875625e+08  5.87768400e+09  9.93e+01 5.50e-09  4.50e+03    42s
  17   1.18717628e+09  4.96689336e+09  6.38e+01 7.32e-09  3.30e+03    43s
  18   1.23667431e+09  3.99207732e+09  5.72e+01 6.98e-09  2.54e+03    44s
  19   1.28667818e+09  3.54221192e+09  5.04e+01 6.32e-09  2.13e+03    45s
  20   1.32424641e+09  3.16293279e+09  4.53e+01 7.60e-09  1.80e+03    46s
  21   1.38419881e+09  3.06308874e+09  3.72e+01 9.71e-09  1.59e+03    47s
  22   1.43466347e+09  2.80755901e+09  3.03e+01 8.17e-09  1.31e+03    48s
  23   1.48865283e+09  2.65469545e+09  2.27e+01 9.11e-09  1.08e+03    49s
  24   1.52092413e+09  2.50831409e+09  1.81e+01 9.53e-09  9.01e+02    50s
  25   1.53019986e+09  2.40522016e+09  1.66e+01 1.01e-08  8.04e+02    51s
  26   1.56003459e+09  2.33413125e+09  1.20e+01 1.07e-08  6.73e+02    52s
  27   1.56823803e+09  2.31953038e+09  1.08e+01 1.22e-08  6.40e+02    53s
  28   1.58845733e+09  2.15458774e+09  7.62e+00 1.09e-08  4.62e+02    54s
  29   1.60558519e+09  1.98895864e+09  5.02e+00 1.07e-08  2.96e+02    55s
  30   1.63267206e+09  1.88370483e+09  1.09e+00 6.15e-09  1.73e+02    56s
  31   1.63659943e+09  1.76021474e+09  7.38e-01 4.38e-09  8.33e+01    57s
  32   1.63773531e+09  1.75317132e+09  6.58e-01 4.66e-09  7.75e+01    58s
  33   1.63799383e+09  1.75064587e+09  6.41e-01 5.19e-09  7.56e+01    58s
  34   1.63841140e+09  1.74184949e+09  6.15e-01 5.07e-09  6.93e+01    59s
  35   1.64133793e+09  1.72059038e+09  4.73e-01 4.43e-09  5.27e+01    60s
  36   1.64443698e+09  1.70585737e+09  3.62e-01 3.82e-09  4.07e+01    61s
  37   1.64746941e+09  1.69605836e+09  2.81e-01 3.53e-09  3.21e+01    62s
  38   1.64962360e+09  1.68384066e+09  2.35e-01 3.15e-09  2.25e+01    63s
  39   1.65279265e+09  1.68122381e+09  1.78e-01 3.21e-09  1.87e+01    64s
  40   1.65388428e+09  1.67916289e+09  1.60e-01 3.10e-09  1.66e+01    65s
  41   1.65514394e+09  1.67675213e+09  1.44e-01 2.95e-09  1.42e+01    66s
  42   1.65540943e+09  1.67634794e+09  1.41e-01 3.35e-09  1.37e+01    67s
  43   1.65746402e+09  1.67543596e+09  1.13e-01 4.62e-09  1.18e+01    68s
  44   1.65890962e+09  1.67398968e+09  9.61e-02 3.57e-09  9.88e+00    69s
  45   1.66009329e+09  1.67288948e+09  8.32e-02 3.04e-09  8.38e+00    70s
  46   1.66112946e+09  1.67229738e+09  7.22e-02 2.97e-09  7.31e+00    71s
  47   1.66150170e+09  1.67203441e+09  6.84e-02 3.33e-09  6.89e+00    72s
  48   1.66191922e+09  1.67158833e+09  6.41e-02 3.10e-09  6.32e+00    73s
  49   1.66288585e+09  1.67140491e+09  5.44e-02 3.92e-09  5.58e+00    74s
  50   1.66343526e+09  1.67073882e+09  4.90e-02 2.90e-09  4.78e+00    75s
  51   1.66402864e+09  1.67037604e+09  4.33e-02 3.18e-09  4.15e+00    76s
  52   1.66447856e+09  1.67005762e+09  3.88e-02 2.83e-09  3.64e+00    76s
  53   1.66510656e+09  1.66981965e+09  3.27e-02 2.90e-09  3.08e+00    77s
  54   1.66555452e+09  1.66950985e+09  2.85e-02 2.74e-09  2.58e+00    78s
  55   1.66611493e+09  1.66933150e+09  2.30e-02 2.99e-09  2.10e+00    80s
  56   1.66635396e+09  1.66915708e+09  2.05e-02 3.43e-09  1.83e+00    81s
  57   1.66695464e+09  1.66906833e+09  1.46e-02 4.30e-09  1.38e+00    82s
  58   1.66714888e+09  1.66898265e+09  1.27e-02 3.36e-09  1.20e+00    83s
  59   1.66750038e+09  1.66881668e+09  9.20e-03 2.67e-09  8.60e-01    84s
  60   1.66774092e+09  1.66869684e+09  6.82e-03 2.50e-09  6.24e-01    85s
  61   1.66792374e+09  1.66864593e+09  5.09e-03 3.20e-09  4.72e-01    86s
  62   1.66812829e+09  1.66859656e+09  3.10e-03 3.72e-09  3.06e-01    87s
  63   1.66826797e+09  1.66854718e+09  1.73e-03 2.78e-09  1.83e-01    88s
  64   1.66828293e+09  1.66852867e+09  1.59e-03 2.62e-09  1.61e-01    89s
  65   1.66832252e+09  1.66851150e+09  1.19e-03 2.95e-09  1.24e-01    90s
  66   1.66832534e+09  1.66850409e+09  1.17e-03 2.58e-09  1.17e-01    91s
  67   1.66833999e+09  1.66850113e+09  1.03e-03 2.90e-09  1.05e-01    92s
  68   1.66837801e+09  1.66848298e+09  6.67e-04 2.82e-09  6.87e-02    93s
  69   1.66841975e+09  1.66846903e+09  2.80e-04 3.23e-09  3.23e-02    94s
  70   1.66842438e+09  1.66845686e+09  2.40e-04 2.41e-09  2.12e-02    95s
  71   1.66843824e+09  1.66845286e+09  1.11e-04 2.58e-09  9.53e-03    96s
  72   1.66844395e+09  1.66845257e+09  5.84e-05 3.21e-09  5.63e-03    97s
  73   1.66844910e+09  1.66845093e+09  1.16e-05 2.13e-09  1.20e-03    97s
  74   1.66845033e+09  1.66845062e+09  1.11e-06 2.90e-09  1.94e-04    98s
  75   1.66845038e+09  1.66845048e+09  6.27e-07 2.18e-09  6.59e-05    99s
  76   1.66845045e+09  1.66845047e+09  7.74e-08 2.31e-09  1.52e-05   100s
  77   1.66845046e+09  1.66845046e+09  2.49e-08 2.24e-09  4.41e-06   101s
  78   1.66845046e+09  1.66845046e+09  4.59e-07 2.38e-09  4.93e-07   102s
  79   1.66845046e+09  1.66845046e+09  1.86e-07 2.66e-09  5.37e-08   103s
  80   1.66845046e+09  1.66845046e+09  4.50e-09 3.79e-09  1.87e-11   104s

Barrier solved model in 80 iterations and 103.98 seconds (73.96 work units)
Optimal objective 1.66845046e+09


Root crossover log...

   21253 DPushes remaining with DInf 0.0000000e+00               104s
       5 DPushes remaining with DInf 0.0000000e+00               107s
       0 DPushes remaining with DInf 0.0000000e+00               107s

     888 PPushes remaining with PInf 0.0000000e+00               107s
       0 PPushes remaining with PInf 0.0000000e+00               107s

  Push phase complete: Pinf 0.0000000e+00, Dinf 1.0545209e-07    107s


Root simplex log...

Iteration    Objective       Primal Inf.    Dual Inf.      Time
   22111    1.6684505e+09   0.000000e+00   0.000000e+00    107s
Concurrent spin time: 0.03s

Solved with barrier
   22111    1.6684505e+09   0.000000e+00   0.000000e+00    108s

Root relaxation: objective 1.668450e+09, 22111 iterations, 89.95 seconds (34.00 work units)
Total elapsed time = 110.09s

    Nodes    |    Current Node    |     Objective Bounds      |     Work
 Expl Unexpl |  Obj  Depth IntInf | Incumbent    BestBd   Gap | It/Node Time

     0     0 1.6685e+09    0  782          - 1.6685e+09      -     -  112s
     0     0 1.6684e+09    0  777          - 1.6684e+09      -     -  184s
     0     0 1.6684e+09    0  737          - 1.6684e+09      -     -  209s
     0     0 1.6684e+09    0  760          - 1.6684e+09      -     -  215s
     0     0 1.6684e+09    0  758          - 1.6684e+09      -     -  216s
     0     0 1.6684e+09    0  792          - 1.6684e+09      -     -  250s
     0     0 1.6684e+09    0  787          - 1.6684e+09      -     -  266s
     0     0 1.6684e+09    0  771          - 1.6684e+09      -     -  281s
     0     0 1.6684e+09    0  768          - 1.6684e+09      -     -  293s
     0     0 1.6684e+09    0  773          - 1.6684e+09      -     -  299s
     0     0 1.6684e+09    0  774          - 1.6684e+09      -     -  307s
     0     0 1.6684e+09    0  792          - 1.6684e+09      -     -  320s
     0     0 1.6684e+09    0  802          - 1.6684e+09      -     -  325s
     0     0 1.6684e+09    0  804          - 1.6684e+09      -     -  329s
     0     0 1.6684e+09    0  806          - 1.6684e+09      -     -  334s
     0     0 1.6684e+09    0  802          - 1.6684e+09      -     -  341s
     0     0 1.6684e+09    0  784          - 1.6684e+09      -     -  346s
     0     2 1.6684e+09    0  773          - 1.6684e+09      -     -  503s
     1     4 1.6684e+09    1  777          - 1.6684e+09      -   981  540s
     3     8 1.6684e+09    2  773          - 1.6684e+09      -  2070  641s
     7    16 1.6684e+09    3  772          - 1.6684e+09      -  2065  895s
    15    24 1.6684e+09    4  682          - 1.6684e+09      -  2623 1015s
    23    32 1.6684e+09    4  742          - 1.6684e+09      -  2052 1232s
    31    39 1.6684e+09    5  746          - 1.6684e+09      -  1998 1336s

Cutting planes:
  Implied bound: 4
  MIR: 17
  Flow cover: 16
  Zero half: 3
  RLT: 8

Explored 38 nodes (99716 simplex iterations) in 1336.83 seconds (1033.26 work units)
Thread count was 16 (of 16 available processors)

Solution count 0

Solve interrupted
Best objective -, best bound 1.668426935954e+09, gap -
IIS computation: initial model status unknown, solving to determine model status
Presolve removed 33126 rows and 90555 columns (presolve time = 5s) ...
Presolve removed 64946 rows and 129229 columns (presolve time = 10s) ...
Presolve removed 65036 rows and 130255 columns (presolve time = 15s) ...
Presolve removed 65022 rows and 130241 columns
Presolve time: 15.58s
Presolved: 25944 rows, 752071 columns, 4380422 nonzeros
Variable types: 1478 continuous, 750593 integer (750593 binary)
Deterministic concurrent LP optimizer: primal simplex, dual simplex, and barrier
Showing barrier log only...

Root barrier log...

Elapsed ordering time = 6s
Ordering time: 7.59s

Barrier statistics:
 AA' NZ     : 1.893e+06
 Factor NZ  : 6.033e+06 (roughly 400 MB of memory)
 Factor Ops : 5.627e+09 (less than 1 second per iteration)
 Threads    : 5

                  Objective                Residual
Iter       Primal          Dual         Primal    Dual     Compl     Time
   0  -0.00000000e+00  1.15838194e+05  7.57e+09 0.00e+00  1.51e+04    31s
   1  -0.00000000e+00  1.64481302e+05  1.12e+09 8.33e-17  2.27e+03    32s
   2  -0.00000000e+00  1.18811307e+05  7.27e+06 1.11e-16  1.48e+01    33s
   3  -0.00000000e+00  2.59730289e+04  1.00e+06 4.39e-17  9.35e-01    34s
   4  -0.00000000e+00  8.93315802e+03  2.98e+05 1.72e-17  1.21e-01    35s
   5  -0.00000000e+00  3.67939089e+03  1.16e+05 8.97e-17  2.34e-02    35s
   6  -0.00000000e+00  2.99764045e+03  7.21e+04 5.27e-17  1.29e-02    36s
   7  -0.00000000e+00  7.68409288e+02  2.34e+04 8.06e-17  1.94e-03    37s
   8  -0.00000000e+00  1.99243086e+02  7.73e+03 6.85e-08  3.66e-04    38s
   9  -0.00000000e+00  1.11568199e+02  3.47e+03 7.41e-08  1.55e-04    39s
  10  -0.00000000e+00  5.41793833e+01  1.59e+03 6.74e-08  6.45e-05    39s
  11  -0.00000000e+00  2.99241028e+01  5.73e+02 5.27e-08  2.87e-05    40s
  12  -0.00000000e+00  1.88331731e+01  2.51e+02 4.03e-08  1.61e-05    41s
  13  -0.00000000e+00  1.56764031e+01  1.60e+02 3.48e-08  1.27e-05    41s
  14  -0.00000000e+00  1.25250895e+01  1.15e+02 2.70e-08  9.98e-06    42s
  15  -0.00000000e+00  9.36701002e+00  8.45e+01 1.78e-08  7.50e-06    43s
  16  -0.00000000e+00  8.04650139e+00  6.33e+01 1.68e-08  6.32e-06    43s
  17  -0.00000000e+00  6.94527734e+00  4.70e+01 1.73e-08  5.36e-06    44s
  18  -0.00000000e+00  4.44318581e+00  4.05e+01 1.41e-08  3.60e-06    45s
  19  -0.00000000e+00  3.24059604e+00  3.57e+01 1.54e-08  2.74e-06    46s
  20  -0.00000000e+00  2.62067961e+00  3.19e+01 1.64e-08  2.29e-06    47s
  21  -0.00000000e+00  1.91929398e+00  2.00e+01 2.37e-08  1.65e-06    48s
  22  -0.00000000e+00  1.49835701e+00  1.37e+01 3.15e-08  1.26e-06    49s
  23  -0.00000000e+00  1.32428663e+00  9.37e+00 3.49e-08  1.05e-06    51s
  24  -0.00000000e+00  7.13273768e-01  4.50e+00 4.74e-08  5.43e-07    52s
  25  -0.00000000e+00  3.98732201e-01  7.11e-01 4.21e-08  2.80e-07    53s
  26  -0.00000000e+00  3.99860599e-02  1.05e-10 1.12e-08  3.15e-08    54s
  27  -0.00000000e+00  4.01723418e-08  1.14e-10 1.12e-14  3.17e-14    54s
  28  -0.00000000e+00  4.03598541e-14  5.14e-11 1.13e-20  3.18e-20    55s

Barrier solved model in 28 iterations and 55.07 seconds (59.13 work units)
Optimal objective -0.00000000e+00

  Building initial crossover basis                                67s
  Building initial crossover basis                                71s
  Building initial crossover basis                                76s
  Building initial crossover basis                                81s
  Building initial crossover basis                                85s
  Building initial crossover basis                                91s
  Building initial crossover basis                                95s
  Building initial crossover basis                               101s
  Building initial crossover basis                               105s
  Building initial crossover basis                               110s


Root relaxation: interrupted, 0 iterations, 95.44 seconds (49.28 work units)

    Nodes    |    Current Node    |     Objective Bounds      |     Work
 Expl Unexpl |  Obj  Depth IntInf | Incumbent    BestBd   Gap | It/Node Time

     0     0          -    0               -   -0.00000      -     -  114s

Explored 1 nodes (0 simplex iterations) in 115.05 seconds (90.00 work units)
Thread count was 16 (of 16 available processors)

Solution count 0

Solve interrupted
Best objective -, best bound -0.000000000000e+00, gap -
IIS runtime: 115.11 seconds (90.00 work units)
